TCS_Benchmarks/redos_fix/corpus2_output_distinct_4392_4391_16_0.txt
.*
(.*)([Pp][Aa][Tt][Cc][Hh].*\]\s*)(.*)
.*